(set-info :smt-lib-version 2.6)
(set-logic UFBV)
(set-info :source |
Hardware fixpoint check problems.
These benchmarks stem from an evaluation described in Wintersteiger, Hamadi, de Moura: Efficiently solving quantified bit-vector formulas, FMSD 42(1), 2013.
The hardware models that were used are from the VCEGAR benchmark suite (see www.cprover.org/hardware/).
|)
(set-info :category "industrial")
(set-info :status unsat)
(declare-fun Verilog__main.y_64_2_39_!9 (Bool Bool (_ BitVec 3) (_ BitVec 3) Bool Bool (_ BitVec 3) (_ BitVec 3) Bool Bool (_ BitVec 3) (_ BitVec 3) Bool Bool (_ BitVec 3) (_ BitVec 3) Bool Bool (_ BitVec 3) (_ BitVec 3)) (_ BitVec 3))
(declare-fun Verilog__main.y_64_1_39_!5 (Bool Bool (_ BitVec 3) (_ BitVec 3) Bool Bool (_ BitVec 3) (_ BitVec 3) Bool Bool (_ BitVec 3) (_ BitVec 3) Bool Bool (_ BitVec 3) (_ BitVec 3) Bool Bool (_ BitVec 3) (_ BitVec 3)) (_ BitVec 3))
(declare-fun Verilog__main.b1_64_2_39_!11 (Bool Bool (_ BitVec 3) (_ BitVec 3) Bool Bool (_ BitVec 3) (_ BitVec 3) Bool Bool (_ BitVec 3) (_ BitVec 3) Bool Bool (_ BitVec 3) (_ BitVec 3) Bool Bool (_ BitVec 3) (_ BitVec 3)) Bool)
(declare-fun Verilog__main.x_64_3_39_!12 (Bool Bool (_ BitVec 3) (_ BitVec 3) Bool Bool (_ BitVec 3) (_ BitVec 3) Bool Bool (_ BitVec 3) (_ BitVec 3) Bool Bool (_ BitVec 3) (_ BitVec 3) Bool Bool (_ BitVec 3) (_ BitVec 3)) (_ BitVec 3))
(declare-fun Verilog__main.b0_64_3_39_!14 (Bool Bool (_ BitVec 3) (_ BitVec 3) Bool Bool (_ BitVec 3) (_ BitVec 3) Bool Bool (_ BitVec 3) (_ BitVec 3) Bool Bool (_ BitVec 3) (_ BitVec 3) Bool Bool (_ BitVec 3) (_ BitVec 3)) Bool)
(declare-fun Verilog__main.y_64_0_39_!1 (Bool Bool (_ BitVec 3) (_ BitVec 3) Bool Bool (_ BitVec 3) (_ BitVec 3) Bool Bool (_ BitVec 3) (_ BitVec 3) Bool Bool (_ BitVec 3) (_ BitVec 3) Bool Bool (_ BitVec 3) (_ BitVec 3)) (_ BitVec 3))
(declare-fun Verilog__main.x_64_2_39_!8 (Bool Bool (_ BitVec 3) (_ BitVec 3) Bool Bool (_ BitVec 3) (_ BitVec 3) Bool Bool (_ BitVec 3) (_ BitVec 3) Bool Bool (_ BitVec 3) (_ BitVec 3) Bool Bool (_ BitVec 3) (_ BitVec 3)) (_ BitVec 3))
(declare-fun Verilog__main.b0_64_1_39_!6 (Bool Bool (_ BitVec 3) (_ BitVec 3) Bool Bool (_ BitVec 3) (_ BitVec 3) Bool Bool (_ BitVec 3) (_ BitVec 3) Bool Bool (_ BitVec 3) (_ BitVec 3) Bool Bool (_ BitVec 3) (_ BitVec 3)) Bool)
(declare-fun Verilog__main.x_64_0_39_!0 (Bool Bool (_ BitVec 3) (_ BitVec 3) Bool Bool (_ BitVec 3) (_ BitVec 3) Bool Bool (_ BitVec 3) (_ BitVec 3) Bool Bool (_ BitVec 3) (_ BitVec 3) Bool Bool (_ BitVec 3) (_ BitVec 3)) (_ BitVec 3))
(declare-fun Verilog__main.b0_64_2_39_!10 (Bool Bool (_ BitVec 3) (_ BitVec 3) Bool Bool (_ BitVec 3) (_ BitVec 3) Bool Bool (_ BitVec 3) (_ BitVec 3) Bool Bool (_ BitVec 3) (_ BitVec 3) Bool Bool (_ BitVec 3) (_ BitVec 3)) Bool)
(declare-fun Verilog__main.y_64_3_39_!13 (Bool Bool (_ BitVec 3) (_ BitVec 3) Bool Bool (_ BitVec 3) (_ BitVec 3) Bool Bool (_ BitVec 3) (_ BitVec 3) Bool Bool (_ BitVec 3) (_ BitVec 3) Bool Bool (_ BitVec 3) (_ BitVec 3)) (_ BitVec 3))
(declare-fun Verilog__main.b1_64_0_39_!3 (Bool Bool (_ BitVec 3) (_ BitVec 3) Bool Bool (_ BitVec 3) (_ BitVec 3) Bool Bool (_ BitVec 3) (_ BitVec 3) Bool Bool (_ BitVec 3) (_ BitVec 3) Bool Bool (_ BitVec 3) (_ BitVec 3)) Bool)
(declare-fun Verilog__main.b0_64_0_39_!2 (Bool Bool (_ BitVec 3) (_ BitVec 3) Bool Bool (_ BitVec 3) (_ BitVec 3) Bool Bool (_ BitVec 3) (_ BitVec 3) Bool Bool (_ BitVec 3) (_ BitVec 3) Bool Bool (_ BitVec 3) (_ BitVec 3)) Bool)
(declare-fun Verilog__main.x_64_1_39_!4 (Bool Bool (_ BitVec 3) (_ BitVec 3) Bool Bool (_ BitVec 3) (_ BitVec 3) Bool Bool (_ BitVec 3) (_ BitVec 3) Bool Bool (_ BitVec 3) (_ BitVec 3) Bool Bool (_ BitVec 3) (_ BitVec 3)) (_ BitVec 3))
(declare-fun Verilog__main.b1_64_1_39_!7 (Bool Bool (_ BitVec 3) (_ BitVec 3) Bool Bool (_ BitVec 3) (_ BitVec 3) Bool Bool (_ BitVec 3) (_ BitVec 3) Bool Bool (_ BitVec 3) (_ BitVec 3) Bool Bool (_ BitVec 3) (_ BitVec 3)) Bool)
(declare-fun Verilog__main.b1_64_3_39_!15 (Bool Bool (_ BitVec 3) (_ BitVec 3) Bool Bool (_ BitVec 3) (_ BitVec 3) Bool Bool (_ BitVec 3) (_ BitVec 3) Bool Bool (_ BitVec 3) (_ BitVec 3) Bool Bool (_ BitVec 3) (_ BitVec 3)) Bool)
(assert (forall ((Verilog__main.x_64_0 (_ BitVec 3)) (Verilog__main.y_64_0 (_ BitVec 3)) (Verilog__main.b0_64_0 Bool) (Verilog__main.b1_64_0 Bool) (Verilog__main.x_64_1 (_ BitVec 3)) (Verilog__main.y_64_1 (_ BitVec 3)) (Verilog__main.b0_64_1 Bool) (Verilog__main.b1_64_1 Bool) (Verilog__main.x_64_2 (_ BitVec 3)) (Verilog__main.y_64_2 (_ BitVec 3)) (Verilog__main.b0_64_2 Bool) (Verilog__main.b1_64_2 Bool) (Verilog__main.x_64_3 (_ BitVec 3)) (Verilog__main.y_64_3 (_ BitVec 3)) (Verilog__main.b0_64_3 Bool) (Verilog__main.b1_64_3 Bool) (Verilog__main.x_64_4 (_ BitVec 3)) (Verilog__main.y_64_4 (_ BitVec 3)) (Verilog__main.b0_64_4 Bool) (Verilog__main.b1_64_4 Bool)) (=> (and (= Verilog__main.x_64_0 (_ bv0 3)) (= Verilog__main.y_64_0 (_ bv0 3)) (= Verilog__main.b0_64_0 false) (= Verilog__main.b1_64_0 false) (= Verilog__main.x_64_1 (ite (= Verilog__main.b0_64_0 Verilog__main.b1_64_0) (bvadd ((_ extract 2 0) ((_ zero_extend 29) Verilog__main.x_64_0)) (_ bv1 3)) Verilog__main.x_64_0)) (= Verilog__main.y_64_1 (ite (= Verilog__main.b0_64_0 Verilog__main.b1_64_0) Verilog__main.y_64_0 (bvadd ((_ extract 2 0) ((_ zero_extend 29) Verilog__main.y_64_0)) (_ bv1 3)))) (= Verilog__main.b0_64_1 (not Verilog__main.b1_64_0)) (= Verilog__main.b1_64_1 Verilog__main.b0_64_0) (= Verilog__main.x_64_2 (ite (= Verilog__main.b0_64_1 Verilog__main.b1_64_1) (bvadd ((_ extract 2 0) ((_ zero_extend 29) Verilog__main.x_64_1)) (_ bv1 3)) Verilog__main.x_64_1)) (= Verilog__main.y_64_2 (ite (= Verilog__main.b0_64_1 Verilog__main.b1_64_1) Verilog__main.y_64_1 (bvadd ((_ extract 2 0) ((_ zero_extend 29) Verilog__main.y_64_1)) (_ bv1 3)))) (= Verilog__main.b0_64_2 (not Verilog__main.b1_64_1)) (= Verilog__main.b1_64_2 Verilog__main.b0_64_1) (= Verilog__main.x_64_3 (ite (= Verilog__main.b0_64_2 Verilog__main.b1_64_2) (bvadd ((_ extract 2 0) ((_ zero_extend 29) Verilog__main.x_64_2)) (_ bv1 3)) Verilog__main.x_64_2)) (= Verilog__main.y_64_3 (ite (= Verilog__main.b0_64_2 Verilog__main.b1_64_2) Verilog__main.y_64_2 (bvadd ((_ extract 2 0) ((_ zero_extend 29) Verilog__main.y_64_2)) (_ bv1 3)))) (= Verilog__main.b0_64_3 (not Verilog__main.b1_64_2)) (= Verilog__main.b1_64_3 Verilog__main.b0_64_2) (= Verilog__main.x_64_4 (ite (= Verilog__main.b0_64_3 Verilog__main.b1_64_3) (bvadd ((_ extract 2 0) ((_ zero_extend 29) Verilog__main.x_64_3)) (_ bv1 3)) Verilog__main.x_64_3)) (= Verilog__main.y_64_4 (ite (= Verilog__main.b0_64_3 Verilog__main.b1_64_3) Verilog__main.y_64_3 (bvadd ((_ extract 2 0) ((_ zero_extend 29) Verilog__main.y_64_3)) (_ bv1 3)))) (= Verilog__main.b0_64_4 (not Verilog__main.b1_64_3)) (= Verilog__main.b1_64_4 Verilog__main.b0_64_3)) (and (= (Verilog__main.x_64_0_39_!0 Verilog__main.b1_64_4 Verilog__main.b0_64_4 Verilog__main.y_64_4 Verilog__main.x_64_4 Verilog__main.b1_64_3 Verilog__main.b0_64_3 Verilog__main.y_64_3 Verilog__main.x_64_3 Verilog__main.b1_64_2 Verilog__main.b0_64_2 Verilog__main.y_64_2 Verilog__main.x_64_2 Verilog__main.b1_64_1 Verilog__main.b0_64_1 Verilog__main.y_64_1 Verilog__main.x_64_1 Verilog__main.b1_64_0 Verilog__main.b0_64_0 Verilog__main.y_64_0 Verilog__main.x_64_0) (_ bv0 3)) (= (Verilog__main.y_64_0_39_!1 Verilog__main.b1_64_4 Verilog__main.b0_64_4 Verilog__main.y_64_4 Verilog__main.x_64_4 Verilog__main.b1_64_3 Verilog__main.b0_64_3 Verilog__main.y_64_3 Verilog__main.x_64_3 Verilog__main.b1_64_2 Verilog__main.b0_64_2 Verilog__main.y_64_2 Verilog__main.x_64_2 Verilog__main.b1_64_1 Verilog__main.b0_64_1 Verilog__main.y_64_1 Verilog__main.x_64_1 Verilog__main.b1_64_0 Verilog__main.b0_64_0 Verilog__main.y_64_0 Verilog__main.x_64_0) (_ bv0 3)) (= (Verilog__main.b0_64_0_39_!2 Verilog__main.b1_64_4 Verilog__main.b0_64_4 Verilog__main.y_64_4 Verilog__main.x_64_4 Verilog__main.b1_64_3 Verilog__main.b0_64_3 Verilog__main.y_64_3 Verilog__main.x_64_3 Verilog__main.b1_64_2 Verilog__main.b0_64_2 Verilog__main.y_64_2 Verilog__main.x_64_2 Verilog__main.b1_64_1 Verilog__main.b0_64_1 Verilog__main.y_64_1 Verilog__main.x_64_1 Verilog__main.b1_64_0 Verilog__main.b0_64_0 Verilog__main.y_64_0 Verilog__main.x_64_0) false) (= (Verilog__main.b1_64_0_39_!3 Verilog__main.b1_64_4 Verilog__main.b0_64_4 Verilog__main.y_64_4 Verilog__main.x_64_4 Verilog__main.b1_64_3 Verilog__main.b0_64_3 Verilog__main.y_64_3 Verilog__main.x_64_3 Verilog__main.b1_64_2 Verilog__main.b0_64_2 Verilog__main.y_64_2 Verilog__main.x_64_2 Verilog__main.b1_64_1 Verilog__main.b0_64_1 Verilog__main.y_64_1 Verilog__main.x_64_1 Verilog__main.b1_64_0 Verilog__main.b0_64_0 Verilog__main.y_64_0 Verilog__main.x_64_0) false) (= (Verilog__main.x_64_1_39_!4 Verilog__main.b1_64_4 Verilog__main.b0_64_4 Verilog__main.y_64_4 Verilog__main.x_64_4 Verilog__main.b1_64_3 Verilog__main.b0_64_3 Verilog__main.y_64_3 Verilog__main.x_64_3 Verilog__main.b1_64_2 Verilog__main.b0_64_2 Verilog__main.y_64_2 Verilog__main.x_64_2 Verilog__main.b1_64_1 Verilog__main.b0_64_1 Verilog__main.y_64_1 Verilog__main.x_64_1 Verilog__main.b1_64_0 Verilog__main.b0_64_0 Verilog__main.y_64_0 Verilog__main.x_64_0) (ite (= (Verilog__main.b0_64_0_39_!2 Verilog__main.b1_64_4 Verilog__main.b0_64_4 Verilog__main.y_64_4 Verilog__main.x_64_4 Verilog__main.b1_64_3 Verilog__main.b0_64_3 Verilog__main.y_64_3 Verilog__main.x_64_3 Verilog__main.b1_64_2 Verilog__main.b0_64_2 Verilog__main.y_64_2 Verilog__main.x_64_2 Verilog__main.b1_64_1 Verilog__main.b0_64_1 Verilog__main.y_64_1 Verilog__main.x_64_1 Verilog__main.b1_64_0 Verilog__main.b0_64_0 Verilog__main.y_64_0 Verilog__main.x_64_0) (Verilog__main.b1_64_0_39_!3 Verilog__main.b1_64_4 Verilog__main.b0_64_4 Verilog__main.y_64_4 Verilog__main.x_64_4 Verilog__main.b1_64_3 Verilog__main.b0_64_3 Verilog__main.y_64_3 Verilog__main.x_64_3 Verilog__main.b1_64_2 Verilog__main.b0_64_2 Verilog__main.y_64_2 Verilog__main.x_64_2 Verilog__main.b1_64_1 Verilog__main.b0_64_1 Verilog__main.y_64_1 Verilog__main.x_64_1 Verilog__main.b1_64_0 Verilog__main.b0_64_0 Verilog__main.y_64_0 Verilog__main.x_64_0)) (bvadd ((_ extract 2 0) ((_ zero_extend 29) (Verilog__main.x_64_0_39_!0 Verilog__main.b1_64_4 Verilog__main.b0_64_4 Verilog__main.y_64_4 Verilog__main.x_64_4 Verilog__main.b1_64_3 Verilog__main.b0_64_3 Verilog__main.y_64_3 Verilog__main.x_64_3 Verilog__main.b1_64_2 Verilog__main.b0_64_2 Verilog__main.y_64_2 Verilog__main.x_64_2 Verilog__main.b1_64_1 Verilog__main.b0_64_1 Verilog__main.y_64_1 Verilog__main.x_64_1 Verilog__main.b1_64_0 Verilog__main.b0_64_0 Verilog__main.y_64_0 Verilog__main.x_64_0))) (_ bv1 3)) (Verilog__main.x_64_0_39_!0 Verilog__main.b1_64_4 Verilog__main.b0_64_4 Verilog__main.y_64_4 Verilog__main.x_64_4 Verilog__main.b1_64_3 Verilog__main.b0_64_3 Verilog__main.y_64_3 Verilog__main.x_64_3 Verilog__main.b1_64_2 Verilog__main.b0_64_2 Verilog__main.y_64_2 Verilog__main.x_64_2 Verilog__main.b1_64_1 Verilog__main.b0_64_1 Verilog__main.y_64_1 Verilog__main.x_64_1 Verilog__main.b1_64_0 Verilog__main.b0_64_0 Verilog__main.y_64_0 Verilog__main.x_64_0))) (= (Verilog__main.y_64_1_39_!5 Verilog__main.b1_64_4 Verilog__main.b0_64_4 Verilog__main.y_64_4 Verilog__main.x_64_4 Verilog__main.b1_64_3 Verilog__main.b0_64_3 Verilog__main.y_64_3 Verilog__main.x_64_3 Verilog__main.b1_64_2 Verilog__main.b0_64_2 Verilog__main.y_64_2 Verilog__main.x_64_2 Verilog__main.b1_64_1 Verilog__main.b0_64_1 Verilog__main.y_64_1 Verilog__main.x_64_1 Verilog__main.b1_64_0 Verilog__main.b0_64_0 Verilog__main.y_64_0 Verilog__main.x_64_0) (ite (= (Verilog__main.b0_64_0_39_!2 Verilog__main.b1_64_4 Verilog__main.b0_64_4 Verilog__main.y_64_4 Verilog__main.x_64_4 Verilog__main.b1_64_3 Verilog__main.b0_64_3 Verilog__main.y_64_3 Verilog__main.x_64_3 Verilog__main.b1_64_2 Verilog__main.b0_64_2 Verilog__main.y_64_2 Verilog__main.x_64_2 Verilog__main.b1_64_1 Verilog__main.b0_64_1 Verilog__main.y_64_1 Verilog__main.x_64_1 Verilog__main.b1_64_0 Verilog__main.b0_64_0 Verilog__main.y_64_0 Verilog__main.x_64_0) (Verilog__main.b1_64_0_39_!3 Verilog__main.b1_64_4 Verilog__main.b0_64_4 Verilog__main.y_64_4 Verilog__main.x_64_4 Verilog__main.b1_64_3 Verilog__main.b0_64_3 Verilog__main.y_64_3 Verilog__main.x_64_3 Verilog__main.b1_64_2 Verilog__main.b0_64_2 Verilog__main.y_64_2 Verilog__main.x_64_2 Verilog__main.b1_64_1 Verilog__main.b0_64_1 Verilog__main.y_64_1 Verilog__main.x_64_1 Verilog__main.b1_64_0 Verilog__main.b0_64_0 Verilog__main.y_64_0 Verilog__main.x_64_0)) (Verilog__main.y_64_0_39_!1 Verilog__main.b1_64_4 Verilog__main.b0_64_4 Verilog__main.y_64_4 Verilog__main.x_64_4 Verilog__main.b1_64_3 Verilog__main.b0_64_3 Verilog__main.y_64_3 Verilog__main.x_64_3 Verilog__main.b1_64_2 Verilog__main.b0_64_2 Verilog__main.y_64_2 Verilog__main.x_64_2 Verilog__main.b1_64_1 Verilog__main.b0_64_1 Verilog__main.y_64_1 Verilog__main.x_64_1 Verilog__main.b1_64_0 Verilog__main.b0_64_0 Verilog__main.y_64_0 Verilog__main.x_64_0) (bvadd ((_ extract 2 0) ((_ zero_extend 29) (Verilog__main.y_64_0_39_!1 Verilog__main.b1_64_4 Verilog__main.b0_64_4 Verilog__main.y_64_4 Verilog__main.x_64_4 Verilog__main.b1_64_3 Verilog__main.b0_64_3 Verilog__main.y_64_3 Verilog__main.x_64_3 Verilog__main.b1_64_2 Verilog__main.b0_64_2 Verilog__main.y_64_2 Verilog__main.x_64_2 Verilog__main.b1_64_1 Verilog__main.b0_64_1 Verilog__main.y_64_1 Verilog__main.x_64_1 Verilog__main.b1_64_0 Verilog__main.b0_64_0 Verilog__main.y_64_0 Verilog__main.x_64_0))) (_ bv1 3)))) (= (Verilog__main.b0_64_1_39_!6 Verilog__main.b1_64_4 Verilog__main.b0_64_4 Verilog__main.y_64_4 Verilog__main.x_64_4 Verilog__main.b1_64_3 Verilog__main.b0_64_3 Verilog__main.y_64_3 Verilog__main.x_64_3 Verilog__main.b1_64_2 Verilog__main.b0_64_2 Verilog__main.y_64_2 Verilog__main.x_64_2 Verilog__main.b1_64_1 Verilog__main.b0_64_1 Verilog__main.y_64_1 Verilog__main.x_64_1 Verilog__main.b1_64_0 Verilog__main.b0_64_0 Verilog__main.y_64_0 Verilog__main.x_64_0) (not (Verilog__main.b1_64_0_39_!3 Verilog__main.b1_64_4 Verilog__main.b0_64_4 Verilog__main.y_64_4 Verilog__main.x_64_4 Verilog__main.b1_64_3 Verilog__main.b0_64_3 Verilog__main.y_64_3 Verilog__main.x_64_3 Verilog__main.b1_64_2 Verilog__main.b0_64_2 Verilog__main.y_64_2 Verilog__main.x_64_2 Verilog__main.b1_64_1 Verilog__main.b0_64_1 Verilog__main.y_64_1 Verilog__main.x_64_1 Verilog__main.b1_64_0 Verilog__main.b0_64_0 Verilog__main.y_64_0 Verilog__main.x_64_0))) (= (Verilog__main.b1_64_1_39_!7 Verilog__main.b1_64_4 Verilog__main.b0_64_4 Verilog__main.y_64_4 Verilog__main.x_64_4 Verilog__main.b1_64_3 Verilog__main.b0_64_3 Verilog__main.y_64_3 Verilog__main.x_64_3 Verilog__main.b1_64_2 Verilog__main.b0_64_2 Verilog__main.y_64_2 Verilog__main.x_64_2 Verilog__main.b1_64_1 Verilog__main.b0_64_1 Verilog__main.y_64_1 Verilog__main.x_64_1 Verilog__main.b1_64_0 Verilog__main.b0_64_0 Verilog__main.y_64_0 Verilog__main.x_64_0) (Verilog__main.b0_64_0_39_!2 Verilog__main.b1_64_4 Verilog__main.b0_64_4 Verilog__main.y_64_4 Verilog__main.x_64_4 Verilog__main.b1_64_3 Verilog__main.b0_64_3 Verilog__main.y_64_3 Verilog__main.x_64_3 Verilog__main.b1_64_2 Verilog__main.b0_64_2 Verilog__main.y_64_2 Verilog__main.x_64_2 Verilog__main.b1_64_1 Verilog__main.b0_64_1 Verilog__main.y_64_1 Verilog__main.x_64_1 Verilog__main.b1_64_0 Verilog__main.b0_64_0 Verilog__main.y_64_0 Verilog__main.x_64_0)) (= (Verilog__main.x_64_2_39_!8 Verilog__main.b1_64_4 Verilog__main.b0_64_4 Verilog__main.y_64_4 Verilog__main.x_64_4 Verilog__main.b1_64_3 Verilog__main.b0_64_3 Verilog__main.y_64_3 Verilog__main.x_64_3 Verilog__main.b1_64_2 Verilog__main.b0_64_2 Verilog__main.y_64_2 Verilog__main.x_64_2 Verilog__main.b1_64_1 Verilog__main.b0_64_1 Verilog__main.y_64_1 Verilog__main.x_64_1 Verilog__main.b1_64_0 Verilog__main.b0_64_0 Verilog__main.y_64_0 Verilog__main.x_64_0) (ite (= (Verilog__main.b0_64_1_39_!6 Verilog__main.b1_64_4 Verilog__main.b0_64_4 Verilog__main.y_64_4 Verilog__main.x_64_4 Verilog__main.b1_64_3 Verilog__main.b0_64_3 Verilog__main.y_64_3 Verilog__main.x_64_3 Verilog__main.b1_64_2 Verilog__main.b0_64_2 Verilog__main.y_64_2 Verilog__main.x_64_2 Verilog__main.b1_64_1 Verilog__main.b0_64_1 Verilog__main.y_64_1 Verilog__main.x_64_1 Verilog__main.b1_64_0 Verilog__main.b0_64_0 Verilog__main.y_64_0 Verilog__main.x_64_0) (Verilog__main.b1_64_1_39_!7 Verilog__main.b1_64_4 Verilog__main.b0_64_4 Verilog__main.y_64_4 Verilog__main.x_64_4 Verilog__main.b1_64_3 Verilog__main.b0_64_3 Verilog__main.y_64_3 Verilog__main.x_64_3 Verilog__main.b1_64_2 Verilog__main.b0_64_2 Verilog__main.y_64_2 Verilog__main.x_64_2 Verilog__main.b1_64_1 Verilog__main.b0_64_1 Verilog__main.y_64_1 Verilog__main.x_64_1 Verilog__main.b1_64_0 Verilog__main.b0_64_0 Verilog__main.y_64_0 Verilog__main.x_64_0)) (bvadd ((_ extract 2 0) ((_ zero_extend 29) (Verilog__main.x_64_1_39_!4 Verilog__main.b1_64_4 Verilog__main.b0_64_4 Verilog__main.y_64_4 Verilog__main.x_64_4 Verilog__main.b1_64_3 Verilog__main.b0_64_3 Verilog__main.y_64_3 Verilog__main.x_64_3 Verilog__main.b1_64_2 Verilog__main.b0_64_2 Verilog__main.y_64_2 Verilog__main.x_64_2 Verilog__main.b1_64_1 Verilog__main.b0_64_1 Verilog__main.y_64_1 Verilog__main.x_64_1 Verilog__main.b1_64_0 Verilog__main.b0_64_0 Verilog__main.y_64_0 Verilog__main.x_64_0))) (_ bv1 3)) (Verilog__main.x_64_1_39_!4 Verilog__main.b1_64_4 Verilog__main.b0_64_4 Verilog__main.y_64_4 Verilog__main.x_64_4 Verilog__main.b1_64_3 Verilog__main.b0_64_3 Verilog__main.y_64_3 Verilog__main.x_64_3 Verilog__main.b1_64_2 Verilog__main.b0_64_2 Verilog__main.y_64_2 Verilog__main.x_64_2 Verilog__main.b1_64_1 Verilog__main.b0_64_1 Verilog__main.y_64_1 Verilog__main.x_64_1 Verilog__main.b1_64_0 Verilog__main.b0_64_0 Verilog__main.y_64_0 Verilog__main.x_64_0))) (= (Verilog__main.y_64_2_39_!9 Verilog__main.b1_64_4 Verilog__main.b0_64_4 Verilog__main.y_64_4 Verilog__main.x_64_4 Verilog__main.b1_64_3 Verilog__main.b0_64_3 Verilog__main.y_64_3 Verilog__main.x_64_3 Verilog__main.b1_64_2 Verilog__main.b0_64_2 Verilog__main.y_64_2 Verilog__main.x_64_2 Verilog__main.b1_64_1 Verilog__main.b0_64_1 Verilog__main.y_64_1 Verilog__main.x_64_1 Verilog__main.b1_64_0 Verilog__main.b0_64_0 Verilog__main.y_64_0 Verilog__main.x_64_0) (ite (= (Verilog__main.b0_64_1_39_!6 Verilog__main.b1_64_4 Verilog__main.b0_64_4 Verilog__main.y_64_4 Verilog__main.x_64_4 Verilog__main.b1_64_3 Verilog__main.b0_64_3 Verilog__main.y_64_3 Verilog__main.x_64_3 Verilog__main.b1_64_2 Verilog__main.b0_64_2 Verilog__main.y_64_2 Verilog__main.x_64_2 Verilog__main.b1_64_1 Verilog__main.b0_64_1 Verilog__main.y_64_1 Verilog__main.x_64_1 Verilog__main.b1_64_0 Verilog__main.b0_64_0 Verilog__main.y_64_0 Verilog__main.x_64_0) (Verilog__main.b1_64_1_39_!7 Verilog__main.b1_64_4 Verilog__main.b0_64_4 Verilog__main.y_64_4 Verilog__main.x_64_4 Verilog__main.b1_64_3 Verilog__main.b0_64_3 Verilog__main.y_64_3 Verilog__main.x_64_3 Verilog__main.b1_64_2 Verilog__main.b0_64_2 Verilog__main.y_64_2 Verilog__main.x_64_2 Verilog__main.b1_64_1 Verilog__main.b0_64_1 Verilog__main.y_64_1 Verilog__main.x_64_1 Verilog__main.b1_64_0 Verilog__main.b0_64_0 Verilog__main.y_64_0 Verilog__main.x_64_0)) (Verilog__main.y_64_1_39_!5 Verilog__main.b1_64_4 Verilog__main.b0_64_4 Verilog__main.y_64_4 Verilog__main.x_64_4 Verilog__main.b1_64_3 Verilog__main.b0_64_3 Verilog__main.y_64_3 Verilog__main.x_64_3 Verilog__main.b1_64_2 Verilog__main.b0_64_2 Verilog__main.y_64_2 Verilog__main.x_64_2 Verilog__main.b1_64_1 Verilog__main.b0_64_1 Verilog__main.y_64_1 Verilog__main.x_64_1 Verilog__main.b1_64_0 Verilog__main.b0_64_0 Verilog__main.y_64_0 Verilog__main.x_64_0) (bvadd ((_ extract 2 0) ((_ zero_extend 29) (Verilog__main.y_64_1_39_!5 Verilog__main.b1_64_4 Verilog__main.b0_64_4 Verilog__main.y_64_4 Verilog__main.x_64_4 Verilog__main.b1_64_3 Verilog__main.b0_64_3 Verilog__main.y_64_3 Verilog__main.x_64_3 Verilog__main.b1_64_2 Verilog__main.b0_64_2 Verilog__main.y_64_2 Verilog__main.x_64_2 Verilog__main.b1_64_1 Verilog__main.b0_64_1 Verilog__main.y_64_1 Verilog__main.x_64_1 Verilog__main.b1_64_0 Verilog__main.b0_64_0 Verilog__main.y_64_0 Verilog__main.x_64_0))) (_ bv1 3)))) (= (Verilog__main.b0_64_2_39_!10 Verilog__main.b1_64_4 Verilog__main.b0_64_4 Verilog__main.y_64_4 Verilog__main.x_64_4 Verilog__main.b1_64_3 Verilog__main.b0_64_3 Verilog__main.y_64_3 Verilog__main.x_64_3 Verilog__main.b1_64_2 Verilog__main.b0_64_2 Verilog__main.y_64_2 Verilog__main.x_64_2 Verilog__main.b1_64_1 Verilog__main.b0_64_1 Verilog__main.y_64_1 Verilog__main.x_64_1 Verilog__main.b1_64_0 Verilog__main.b0_64_0 Verilog__main.y_64_0 Verilog__main.x_64_0) (not (Verilog__main.b1_64_1_39_!7 Verilog__main.b1_64_4 Verilog__main.b0_64_4 Verilog__main.y_64_4 Verilog__main.x_64_4 Verilog__main.b1_64_3 Verilog__main.b0_64_3 Verilog__main.y_64_3 Verilog__main.x_64_3 Verilog__main.b1_64_2 Verilog__main.b0_64_2 Verilog__main.y_64_2 Verilog__main.x_64_2 Verilog__main.b1_64_1 Verilog__main.b0_64_1 Verilog__main.y_64_1 Verilog__main.x_64_1 Verilog__main.b1_64_0 Verilog__main.b0_64_0 Verilog__main.y_64_0 Verilog__main.x_64_0))) (= (Verilog__main.b1_64_2_39_!11 Verilog__main.b1_64_4 Verilog__main.b0_64_4 Verilog__main.y_64_4 Verilog__main.x_64_4 Verilog__main.b1_64_3 Verilog__main.b0_64_3 Verilog__main.y_64_3 Verilog__main.x_64_3 Verilog__main.b1_64_2 Verilog__main.b0_64_2 Verilog__main.y_64_2 Verilog__main.x_64_2 Verilog__main.b1_64_1 Verilog__main.b0_64_1 Verilog__main.y_64_1 Verilog__main.x_64_1 Verilog__main.b1_64_0 Verilog__main.b0_64_0 Verilog__main.y_64_0 Verilog__main.x_64_0) (Verilog__main.b0_64_1_39_!6 Verilog__main.b1_64_4 Verilog__main.b0_64_4 Verilog__main.y_64_4 Verilog__main.x_64_4 Verilog__main.b1_64_3 Verilog__main.b0_64_3 Verilog__main.y_64_3 Verilog__main.x_64_3 Verilog__main.b1_64_2 Verilog__main.b0_64_2 Verilog__main.y_64_2 Verilog__main.x_64_2 Verilog__main.b1_64_1 Verilog__main.b0_64_1 Verilog__main.y_64_1 Verilog__main.x_64_1 Verilog__main.b1_64_0 Verilog__main.b0_64_0 Verilog__main.y_64_0 Verilog__main.x_64_0)) (= (Verilog__main.x_64_3_39_!12 Verilog__main.b1_64_4 Verilog__main.b0_64_4 Verilog__main.y_64_4 Verilog__main.x_64_4 Verilog__main.b1_64_3 Verilog__main.b0_64_3 Verilog__main.y_64_3 Verilog__main.x_64_3 Verilog__main.b1_64_2 Verilog__main.b0_64_2 Verilog__main.y_64_2 Verilog__main.x_64_2 Verilog__main.b1_64_1 Verilog__main.b0_64_1 Verilog__main.y_64_1 Verilog__main.x_64_1 Verilog__main.b1_64_0 Verilog__main.b0_64_0 Verilog__main.y_64_0 Verilog__main.x_64_0) (ite (= (Verilog__main.b0_64_2_39_!10 Verilog__main.b1_64_4 Verilog__main.b0_64_4 Verilog__main.y_64_4 Verilog__main.x_64_4 Verilog__main.b1_64_3 Verilog__main.b0_64_3 Verilog__main.y_64_3 Verilog__main.x_64_3 Verilog__main.b1_64_2 Verilog__main.b0_64_2 Verilog__main.y_64_2 Verilog__main.x_64_2 Verilog__main.b1_64_1 Verilog__main.b0_64_1 Verilog__main.y_64_1 Verilog__main.x_64_1 Verilog__main.b1_64_0 Verilog__main.b0_64_0 Verilog__main.y_64_0 Verilog__main.x_64_0) (Verilog__main.b1_64_2_39_!11 Verilog__main.b1_64_4 Verilog__main.b0_64_4 Verilog__main.y_64_4 Verilog__main.x_64_4 Verilog__main.b1_64_3 Verilog__main.b0_64_3 Verilog__main.y_64_3 Verilog__main.x_64_3 Verilog__main.b1_64_2 Verilog__main.b0_64_2 Verilog__main.y_64_2 Verilog__main.x_64_2 Verilog__main.b1_64_1 Verilog__main.b0_64_1 Verilog__main.y_64_1 Verilog__main.x_64_1 Verilog__main.b1_64_0 Verilog__main.b0_64_0 Verilog__main.y_64_0 Verilog__main.x_64_0)) (bvadd ((_ extract 2 0) ((_ zero_extend 29) (Verilog__main.x_64_2_39_!8 Verilog__main.b1_64_4 Verilog__main.b0_64_4 Verilog__main.y_64_4 Verilog__main.x_64_4 Verilog__main.b1_64_3 Verilog__main.b0_64_3 Verilog__main.y_64_3 Verilog__main.x_64_3 Verilog__main.b1_64_2 Verilog__main.b0_64_2 Verilog__main.y_64_2 Verilog__main.x_64_2 Verilog__main.b1_64_1 Verilog__main.b0_64_1 Verilog__main.y_64_1 Verilog__main.x_64_1 Verilog__main.b1_64_0 Verilog__main.b0_64_0 Verilog__main.y_64_0 Verilog__main.x_64_0))) (_ bv1 3)) (Verilog__main.x_64_2_39_!8 Verilog__main.b1_64_4 Verilog__main.b0_64_4 Verilog__main.y_64_4 Verilog__main.x_64_4 Verilog__main.b1_64_3 Verilog__main.b0_64_3 Verilog__main.y_64_3 Verilog__main.x_64_3 Verilog__main.b1_64_2 Verilog__main.b0_64_2 Verilog__main.y_64_2 Verilog__main.x_64_2 Verilog__main.b1_64_1 Verilog__main.b0_64_1 Verilog__main.y_64_1 Verilog__main.x_64_1 Verilog__main.b1_64_0 Verilog__main.b0_64_0 Verilog__main.y_64_0 Verilog__main.x_64_0))) (= (Verilog__main.y_64_3_39_!13 Verilog__main.b1_64_4 Verilog__main.b0_64_4 Verilog__main.y_64_4 Verilog__main.x_64_4 Verilog__main.b1_64_3 Verilog__main.b0_64_3 Verilog__main.y_64_3 Verilog__main.x_64_3 Verilog__main.b1_64_2 Verilog__main.b0_64_2 Verilog__main.y_64_2 Verilog__main.x_64_2 Verilog__main.b1_64_1 Verilog__main.b0_64_1 Verilog__main.y_64_1 Verilog__main.x_64_1 Verilog__main.b1_64_0 Verilog__main.b0_64_0 Verilog__main.y_64_0 Verilog__main.x_64_0) (ite (= (Verilog__main.b0_64_2_39_!10 Verilog__main.b1_64_4 Verilog__main.b0_64_4 Verilog__main.y_64_4 Verilog__main.x_64_4 Verilog__main.b1_64_3 Verilog__main.b0_64_3 Verilog__main.y_64_3 Verilog__main.x_64_3 Verilog__main.b1_64_2 Verilog__main.b0_64_2 Verilog__main.y_64_2 Verilog__main.x_64_2 Verilog__main.b1_64_1 Verilog__main.b0_64_1 Verilog__main.y_64_1 Verilog__main.x_64_1 Verilog__main.b1_64_0 Verilog__main.b0_64_0 Verilog__main.y_64_0 Verilog__main.x_64_0) (Verilog__main.b1_64_2_39_!11 Verilog__main.b1_64_4 Verilog__main.b0_64_4 Verilog__main.y_64_4 Verilog__main.x_64_4 Verilog__main.b1_64_3 Verilog__main.b0_64_3 Verilog__main.y_64_3 Verilog__main.x_64_3 Verilog__main.b1_64_2 Verilog__main.b0_64_2 Verilog__main.y_64_2 Verilog__main.x_64_2 Verilog__main.b1_64_1 Verilog__main.b0_64_1 Verilog__main.y_64_1 Verilog__main.x_64_1 Verilog__main.b1_64_0 Verilog__main.b0_64_0 Verilog__main.y_64_0 Verilog__main.x_64_0)) (Verilog__main.y_64_2_39_!9 Verilog__main.b1_64_4 Verilog__main.b0_64_4 Verilog__main.y_64_4 Verilog__main.x_64_4 Verilog__main.b1_64_3 Verilog__main.b0_64_3 Verilog__main.y_64_3 Verilog__main.x_64_3 Verilog__main.b1_64_2 Verilog__main.b0_64_2 Verilog__main.y_64_2 Verilog__main.x_64_2 Verilog__main.b1_64_1 Verilog__main.b0_64_1 Verilog__main.y_64_1 Verilog__main.x_64_1 Verilog__main.b1_64_0 Verilog__main.b0_64_0 Verilog__main.y_64_0 Verilog__main.x_64_0) (bvadd ((_ extract 2 0) ((_ zero_extend 29) (Verilog__main.y_64_2_39_!9 Verilog__main.b1_64_4 Verilog__main.b0_64_4 Verilog__main.y_64_4 Verilog__main.x_64_4 Verilog__main.b1_64_3 Verilog__main.b0_64_3 Verilog__main.y_64_3 Verilog__main.x_64_3 Verilog__main.b1_64_2 Verilog__main.b0_64_2 Verilog__main.y_64_2 Verilog__main.x_64_2 Verilog__main.b1_64_1 Verilog__main.b0_64_1 Verilog__main.y_64_1 Verilog__main.x_64_1 Verilog__main.b1_64_0 Verilog__main.b0_64_0 Verilog__main.y_64_0 Verilog__main.x_64_0))) (_ bv1 3)))) (= (Verilog__main.b0_64_3_39_!14 Verilog__main.b1_64_4 Verilog__main.b0_64_4 Verilog__main.y_64_4 Verilog__main.x_64_4 Verilog__main.b1_64_3 Verilog__main.b0_64_3 Verilog__main.y_64_3 Verilog__main.x_64_3 Verilog__main.b1_64_2 Verilog__main.b0_64_2 Verilog__main.y_64_2 Verilog__main.x_64_2 Verilog__main.b1_64_1 Verilog__main.b0_64_1 Verilog__main.y_64_1 Verilog__main.x_64_1 Verilog__main.b1_64_0 Verilog__main.b0_64_0 Verilog__main.y_64_0 Verilog__main.x_64_0) (not (Verilog__main.b1_64_2_39_!11 Verilog__main.b1_64_4 Verilog__main.b0_64_4 Verilog__main.y_64_4 Verilog__main.x_64_4 Verilog__main.b1_64_3 Verilog__main.b0_64_3 Verilog__main.y_64_3 Verilog__main.x_64_3 Verilog__main.b1_64_2 Verilog__main.b0_64_2 Verilog__main.y_64_2 Verilog__main.x_64_2 Verilog__main.b1_64_1 Verilog__main.b0_64_1 Verilog__main.y_64_1 Verilog__main.x_64_1 Verilog__main.b1_64_0 Verilog__main.b0_64_0 Verilog__main.y_64_0 Verilog__main.x_64_0))) (= (Verilog__main.b1_64_3_39_!15 Verilog__main.b1_64_4 Verilog__main.b0_64_4 Verilog__main.y_64_4 Verilog__main.x_64_4 Verilog__main.b1_64_3 Verilog__main.b0_64_3 Verilog__main.y_64_3 Verilog__main.x_64_3 Verilog__main.b1_64_2 Verilog__main.b0_64_2 Verilog__main.y_64_2 Verilog__main.x_64_2 Verilog__main.b1_64_1 Verilog__main.b0_64_1 Verilog__main.y_64_1 Verilog__main.x_64_1 Verilog__main.b1_64_0 Verilog__main.b0_64_0 Verilog__main.y_64_0 Verilog__main.x_64_0) (Verilog__main.b0_64_2_39_!10 Verilog__main.b1_64_4 Verilog__main.b0_64_4 Verilog__main.y_64_4 Verilog__main.x_64_4 Verilog__main.b1_64_3 Verilog__main.b0_64_3 Verilog__main.y_64_3 Verilog__main.x_64_3 Verilog__main.b1_64_2 Verilog__main.b0_64_2 Verilog__main.y_64_2 Verilog__main.x_64_2 Verilog__main.b1_64_1 Verilog__main.b0_64_1 Verilog__main.y_64_1 Verilog__main.x_64_1 Verilog__main.b1_64_0 Verilog__main.b0_64_0 Verilog__main.y_64_0 Verilog__main.x_64_0)) (or (and (= Verilog__main.x_64_4 (Verilog__main.x_64_0_39_!0 Verilog__main.b1_64_4 Verilog__main.b0_64_4 Verilog__main.y_64_4 Verilog__main.x_64_4 Verilog__main.b1_64_3 Verilog__main.b0_64_3 Verilog__main.y_64_3 Verilog__main.x_64_3 Verilog__main.b1_64_2 Verilog__main.b0_64_2 Verilog__main.y_64_2 Verilog__main.x_64_2 Verilog__main.b1_64_1 Verilog__main.b0_64_1 Verilog__main.y_64_1 Verilog__main.x_64_1 Verilog__main.b1_64_0 Verilog__main.b0_64_0 Verilog__main.y_64_0 Verilog__main.x_64_0)) (= Verilog__main.y_64_4 (Verilog__main.y_64_0_39_!1 Verilog__main.b1_64_4 Verilog__main.b0_64_4 Verilog__main.y_64_4 Verilog__main.x_64_4 Verilog__main.b1_64_3 Verilog__main.b0_64_3 Verilog__main.y_64_3 Verilog__main.x_64_3 Verilog__main.b1_64_2 Verilog__main.b0_64_2 Verilog__main.y_64_2 Verilog__main.x_64_2 Verilog__main.b1_64_1 Verilog__main.b0_64_1 Verilog__main.y_64_1 Verilog__main.x_64_1 Verilog__main.b1_64_0 Verilog__main.b0_64_0 Verilog__main.y_64_0 Verilog__main.x_64_0)) (= Verilog__main.b0_64_4 (Verilog__main.b0_64_0_39_!2 Verilog__main.b1_64_4 Verilog__main.b0_64_4 Verilog__main.y_64_4 Verilog__main.x_64_4 Verilog__main.b1_64_3 Verilog__main.b0_64_3 Verilog__main.y_64_3 Verilog__main.x_64_3 Verilog__main.b1_64_2 Verilog__main.b0_64_2 Verilog__main.y_64_2 Verilog__main.x_64_2 Verilog__main.b1_64_1 Verilog__main.b0_64_1 Verilog__main.y_64_1 Verilog__main.x_64_1 Verilog__main.b1_64_0 Verilog__main.b0_64_0 Verilog__main.y_64_0 Verilog__main.x_64_0)) (= Verilog__main.b1_64_4 (Verilog__main.b1_64_0_39_!3 Verilog__main.b1_64_4 Verilog__main.b0_64_4 Verilog__main.y_64_4 Verilog__main.x_64_4 Verilog__main.b1_64_3 Verilog__main.b0_64_3 Verilog__main.y_64_3 Verilog__main.x_64_3 Verilog__main.b1_64_2 Verilog__main.b0_64_2 Verilog__main.y_64_2 Verilog__main.x_64_2 Verilog__main.b1_64_1 Verilog__main.b0_64_1 Verilog__main.y_64_1 Verilog__main.x_64_1 Verilog__main.b1_64_0 Verilog__main.b0_64_0 Verilog__main.y_64_0 Verilog__main.x_64_0))) (and (= Verilog__main.x_64_4 (Verilog__main.x_64_1_39_!4 Verilog__main.b1_64_4 Verilog__main.b0_64_4 Verilog__main.y_64_4 Verilog__main.x_64_4 Verilog__main.b1_64_3 Verilog__main.b0_64_3 Verilog__main.y_64_3 Verilog__main.x_64_3 Verilog__main.b1_64_2 Verilog__main.b0_64_2 Verilog__main.y_64_2 Verilog__main.x_64_2 Verilog__main.b1_64_1 Verilog__main.b0_64_1 Verilog__main.y_64_1 Verilog__main.x_64_1 Verilog__main.b1_64_0 Verilog__main.b0_64_0 Verilog__main.y_64_0 Verilog__main.x_64_0)) (= Verilog__main.y_64_4 (Verilog__main.y_64_1_39_!5 Verilog__main.b1_64_4 Verilog__main.b0_64_4 Verilog__main.y_64_4 Verilog__main.x_64_4 Verilog__main.b1_64_3 Verilog__main.b0_64_3 Verilog__main.y_64_3 Verilog__main.x_64_3 Verilog__main.b1_64_2 Verilog__main.b0_64_2 Verilog__main.y_64_2 Verilog__main.x_64_2 Verilog__main.b1_64_1 Verilog__main.b0_64_1 Verilog__main.y_64_1 Verilog__main.x_64_1 Verilog__main.b1_64_0 Verilog__main.b0_64_0 Verilog__main.y_64_0 Verilog__main.x_64_0)) (= Verilog__main.b0_64_4 (Verilog__main.b0_64_1_39_!6 Verilog__main.b1_64_4 Verilog__main.b0_64_4 Verilog__main.y_64_4 Verilog__main.x_64_4 Verilog__main.b1_64_3 Verilog__main.b0_64_3 Verilog__main.y_64_3 Verilog__main.x_64_3 Verilog__main.b1_64_2 Verilog__main.b0_64_2 Verilog__main.y_64_2 Verilog__main.x_64_2 Verilog__main.b1_64_1 Verilog__main.b0_64_1 Verilog__main.y_64_1 Verilog__main.x_64_1 Verilog__main.b1_64_0 Verilog__main.b0_64_0 Verilog__main.y_64_0 Verilog__main.x_64_0)) (= Verilog__main.b1_64_4 (Verilog__main.b1_64_1_39_!7 Verilog__main.b1_64_4 Verilog__main.b0_64_4 Verilog__main.y_64_4 Verilog__main.x_64_4 Verilog__main.b1_64_3 Verilog__main.b0_64_3 Verilog__main.y_64_3 Verilog__main.x_64_3 Verilog__main.b1_64_2 Verilog__main.b0_64_2 Verilog__main.y_64_2 Verilog__main.x_64_2 Verilog__main.b1_64_1 Verilog__main.b0_64_1 Verilog__main.y_64_1 Verilog__main.x_64_1 Verilog__main.b1_64_0 Verilog__main.b0_64_0 Verilog__main.y_64_0 Verilog__main.x_64_0))) (and (= Verilog__main.x_64_4 (Verilog__main.x_64_2_39_!8 Verilog__main.b1_64_4 Verilog__main.b0_64_4 Verilog__main.y_64_4 Verilog__main.x_64_4 Verilog__main.b1_64_3 Verilog__main.b0_64_3 Verilog__main.y_64_3 Verilog__main.x_64_3 Verilog__main.b1_64_2 Verilog__main.b0_64_2 Verilog__main.y_64_2 Verilog__main.x_64_2 Verilog__main.b1_64_1 Verilog__main.b0_64_1 Verilog__main.y_64_1 Verilog__main.x_64_1 Verilog__main.b1_64_0 Verilog__main.b0_64_0 Verilog__main.y_64_0 Verilog__main.x_64_0)) (= Verilog__main.y_64_4 (Verilog__main.y_64_2_39_!9 Verilog__main.b1_64_4 Verilog__main.b0_64_4 Verilog__main.y_64_4 Verilog__main.x_64_4 Verilog__main.b1_64_3 Verilog__main.b0_64_3 Verilog__main.y_64_3 Verilog__main.x_64_3 Verilog__main.b1_64_2 Verilog__main.b0_64_2 Verilog__main.y_64_2 Verilog__main.x_64_2 Verilog__main.b1_64_1 Verilog__main.b0_64_1 Verilog__main.y_64_1 Verilog__main.x_64_1 Verilog__main.b1_64_0 Verilog__main.b0_64_0 Verilog__main.y_64_0 Verilog__main.x_64_0)) (= Verilog__main.b0_64_4 (Verilog__main.b0_64_2_39_!10 Verilog__main.b1_64_4 Verilog__main.b0_64_4 Verilog__main.y_64_4 Verilog__main.x_64_4 Verilog__main.b1_64_3 Verilog__main.b0_64_3 Verilog__main.y_64_3 Verilog__main.x_64_3 Verilog__main.b1_64_2 Verilog__main.b0_64_2 Verilog__main.y_64_2 Verilog__main.x_64_2 Verilog__main.b1_64_1 Verilog__main.b0_64_1 Verilog__main.y_64_1 Verilog__main.x_64_1 Verilog__main.b1_64_0 Verilog__main.b0_64_0 Verilog__main.y_64_0 Verilog__main.x_64_0)) (= Verilog__main.b1_64_4 (Verilog__main.b1_64_2_39_!11 Verilog__main.b1_64_4 Verilog__main.b0_64_4 Verilog__main.y_64_4 Verilog__main.x_64_4 Verilog__main.b1_64_3 Verilog__main.b0_64_3 Verilog__main.y_64_3 Verilog__main.x_64_3 Verilog__main.b1_64_2 Verilog__main.b0_64_2 Verilog__main.y_64_2 Verilog__main.x_64_2 Verilog__main.b1_64_1 Verilog__main.b0_64_1 Verilog__main.y_64_1 Verilog__main.x_64_1 Verilog__main.b1_64_0 Verilog__main.b0_64_0 Verilog__main.y_64_0 Verilog__main.x_64_0))) (and (= Verilog__main.x_64_4 (Verilog__main.x_64_3_39_!12 Verilog__main.b1_64_4 Verilog__main.b0_64_4 Verilog__main.y_64_4 Verilog__main.x_64_4 Verilog__main.b1_64_3 Verilog__main.b0_64_3 Verilog__main.y_64_3 Verilog__main.x_64_3 Verilog__main.b1_64_2 Verilog__main.b0_64_2 Verilog__main.y_64_2 Verilog__main.x_64_2 Verilog__main.b1_64_1 Verilog__main.b0_64_1 Verilog__main.y_64_1 Verilog__main.x_64_1 Verilog__main.b1_64_0 Verilog__main.b0_64_0 Verilog__main.y_64_0 Verilog__main.x_64_0)) (= Verilog__main.y_64_4 (Verilog__main.y_64_3_39_!13 Verilog__main.b1_64_4 Verilog__main.b0_64_4 Verilog__main.y_64_4 Verilog__main.x_64_4 Verilog__main.b1_64_3 Verilog__main.b0_64_3 Verilog__main.y_64_3 Verilog__main.x_64_3 Verilog__main.b1_64_2 Verilog__main.b0_64_2 Verilog__main.y_64_2 Verilog__main.x_64_2 Verilog__main.b1_64_1 Verilog__main.b0_64_1 Verilog__main.y_64_1 Verilog__main.x_64_1 Verilog__main.b1_64_0 Verilog__main.b0_64_0 Verilog__main.y_64_0 Verilog__main.x_64_0)) (= Verilog__main.b0_64_4 (Verilog__main.b0_64_3_39_!14 Verilog__main.b1_64_4 Verilog__main.b0_64_4 Verilog__main.y_64_4 Verilog__main.x_64_4 Verilog__main.b1_64_3 Verilog__main.b0_64_3 Verilog__main.y_64_3 Verilog__main.x_64_3 Verilog__main.b1_64_2 Verilog__main.b0_64_2 Verilog__main.y_64_2 Verilog__main.x_64_2 Verilog__main.b1_64_1 Verilog__main.b0_64_1 Verilog__main.y_64_1 Verilog__main.x_64_1 Verilog__main.b1_64_0 Verilog__main.b0_64_0 Verilog__main.y_64_0 Verilog__main.x_64_0)) (= Verilog__main.b1_64_4 (Verilog__main.b1_64_3_39_!15 Verilog__main.b1_64_4 Verilog__main.b0_64_4 Verilog__main.y_64_4 Verilog__main.x_64_4 Verilog__main.b1_64_3 Verilog__main.b0_64_3 Verilog__main.y_64_3 Verilog__main.x_64_3 Verilog__main.b1_64_2 Verilog__main.b0_64_2 Verilog__main.y_64_2 Verilog__main.x_64_2 Verilog__main.b1_64_1 Verilog__main.b0_64_1 Verilog__main.y_64_1 Verilog__main.x_64_1 Verilog__main.b1_64_0 Verilog__main.b0_64_0 Verilog__main.y_64_0 Verilog__main.x_64_0)))))) ))
(check-sat)
(exit)
